/* Objective function */
min: +C145 +C146 +C147 +C148 +C149 +C150 +C151 +C152 +C153 +C154 +C155 +C156;

/* Constraints */
+61 C1 +17 C2 +62 C3 +17 C4 +19 C5 +8 C6 +38 C7 +C8 +25 C9 +5 C10 +19 C11 +3 C12 -63 C145 <= 0;
+61 C13 +17 C14 +62 C15 +17 C16 +19 C17 +8 C18 +38 C19 +C20 +25 C21 +5 C22 +19 C23 +3 C24 -63 C146 <= 0;
+61 C25 +17 C26 +62 C27 +17 C28 +19 C29 +8 C30 +38 C31 +C32 +25 C33 +5 C34 +19 C35 +3 C36 -63 C147 <= 0;
+61 C37 +17 C38 +62 C39 +17 C40 +19 C41 +8 C42 +38 C43 +C44 +25 C45 +5 C46 +19 C47 +3 C48 -63 C148 <= 0;
+61 C49 +17 C50 +62 C51 +17 C52 +19 C53 +8 C54 +38 C55 +C56 +25 C57 +5 C58 +19 C59 +3 C60 -63 C149 <= 0;
+61 C61 +17 C62 +62 C63 +17 C64 +19 C65 +8 C66 +38 C67 +C68 +25 C69 +5 C70 +19 C71 +3 C72 -63 C150 <= 0;
+61 C73 +17 C74 +62 C75 +17 C76 +19 C77 +8 C78 +38 C79 +C80 +25 C81 +5 C82 +19 C83 +3 C84 -63 C151 <= 0;
+61 C85 +17 C86 +62 C87 +17 C88 +19 C89 +8 C90 +38 C91 +C92 +25 C93 +5 C94 +19 C95 +3 C96 -63 C152 <= 0;
+61 C97 +17 C98 +62 C99 +17 C100 +19 C101 +8 C102 +38 C103 +C104 +25 C105 +5 C106 +19 C107 +3 C108 -63 C153 <= 0;
+61 C109 +17 C110 +62 C111 +17 C112 +19 C113 +8 C114 +38 C115 +C116 +25 C117 +5 C118 +19 C119 +3 C120
 -63 C154 <= 0;
+61 C121 +17 C122 +62 C123 +17 C124 +19 C125 +8 C126 +38 C127 +C128 +25 C129 +5 C130 +19 C131 +3 C132
 -63 C155 <= 0;
+61 C133 +17 C134 +62 C135 +17 C136 +19 C137 +8 C138 +38 C139 +C140 +25 C141 +5 C142 +19 C143 +3 C144
 -63 C156 <= 0;
+61 C1 +17 C2 +62 C3 +17 C4 +19 C5 +8 C6 +38 C7 +C8 +25 C9 +5 C10 +19 C11 +3 C12 -63 C145 <= 0;
+61 C13 +17 C14 +62 C15 +17 C16 +19 C17 +8 C18 +38 C19 +C20 +25 C21 +5 C22 +19 C23 +3 C24 -63 C146 <= 0;
+61 C25 +17 C26 +62 C27 +17 C28 +19 C29 +8 C30 +38 C31 +C32 +25 C33 +5 C34 +19 C35 +3 C36 -63 C147 <= 0;
+61 C37 +17 C38 +62 C39 +17 C40 +19 C41 +8 C42 +38 C43 +C44 +25 C45 +5 C46 +19 C47 +3 C48 -63 C148 <= 0;
+61 C49 +17 C50 +62 C51 +17 C52 +19 C53 +8 C54 +38 C55 +C56 +25 C57 +5 C58 +19 C59 +3 C60 -63 C149 <= 0;
+61 C61 +17 C62 +62 C63 +17 C64 +19 C65 +8 C66 +38 C67 +C68 +25 C69 +5 C70 +19 C71 +3 C72 -63 C150 <= 0;
+61 C73 +17 C74 +62 C75 +17 C76 +19 C77 +8 C78 +38 C79 +C80 +25 C81 +5 C82 +19 C83 +3 C84 -63 C151 <= 0;
+61 C85 +17 C86 +62 C87 +17 C88 +19 C89 +8 C90 +38 C91 +C92 +25 C93 +5 C94 +19 C95 +3 C96 -63 C152 <= 0;
+61 C97 +17 C98 +62 C99 +17 C100 +19 C101 +8 C102 +38 C103 +C104 +25 C105 +5 C106 +19 C107 +3 C108 -63 C153 <= 0;
+61 C109 +17 C110 +62 C111 +17 C112 +19 C113 +8 C114 +38 C115 +C116 +25 C117 +5 C118 +19 C119 +3 C120
 -63 C154 <= 0;
+61 C121 +17 C122 +62 C123 +17 C124 +19 C125 +8 C126 +38 C127 +C128 +25 C129 +5 C130 +19 C131 +3 C132
 -63 C155 <= 0;
+61 C133 +17 C134 +62 C135 +17 C136 +19 C137 +8 C138 +38 C139 +C140 +25 C141 +5 C142 +19 C143 +3 C144
 -63 C156 <= 0;
+C1 +C13 +C25 +C37 +C49 +C61 +C73 +C85 +C97 +C109 +C121 +C133 = 1;
+C2 +C14 +C26 +C38 +C50 +C62 +C74 +C86 +C98 +C110 +C122 +C134 = 1;
+C3 +C15 +C27 +C39 +C51 +C63 +C75 +C87 +C99 +C111 +C123 +C135 = 1;
+C4 +C16 +C28 +C40 +C52 +C64 +C76 +C88 +C100 +C112 +C124 +C136 = 1;
+C5 +C17 +C29 +C41 +C53 +C65 +C77 +C89 +C101 +C113 +C125 +C137 = 1;
+C6 +C18 +C30 +C42 +C54 +C66 +C78 +C90 +C102 +C114 +C126 +C138 = 1;
+C7 +C19 +C31 +C43 +C55 +C67 +C79 +C91 +C103 +C115 +C127 +C139 = 1;
+C8 +C20 +C32 +C44 +C56 +C68 +C80 +C92 +C104 +C116 +C128 +C140 = 1;
+C9 +C21 +C33 +C45 +C57 +C69 +C81 +C93 +C105 +C117 +C129 +C141 = 1;
+C10 +C22 +C34 +C46 +C58 +C70 +C82 +C94 +C106 +C118 +C130 +C142 = 1;
+C11 +C23 +C35 +C47 +C59 +C71 +C83 +C95 +C107 +C119 +C131 +C143 = 1;
+C12 +C24 +C36 +C48 +C60 +C72 +C84 +C96 +C108 +C120 +C132 +C144 = 1;

/* Variable bounds */
C1 <= 1;
C2 <= 1;
C3 <= 1;
C4 <= 1;
C5 <= 1;
C6 <= 1;
C7 <= 1;
C8 <= 1;
C9 <= 1;
C10 <= 1;
C11 <= 1;
C12 <= 1;
C13 <= 1;
C14 <= 1;
C15 <= 1;
C16 <= 1;
C17 <= 1;
C18 <= 1;
C19 <= 1;
C20 <= 1;
C21 <= 1;
C22 <= 1;
C23 <= 1;
C24 <= 1;
C25 <= 1;
C26 <= 1;
C27 <= 1;
C28 <= 1;
C29 <= 1;
C30 <= 1;
C31 <= 1;
C32 <= 1;
C33 <= 1;
C34 <= 1;
C35 <= 1;
C36 <= 1;
C37 <= 1;
C38 <= 1;
C39 <= 1;
C40 <= 1;
C41 <= 1;
C42 <= 1;
C43 <= 1;
C44 <= 1;
C45 <= 1;
C46 <= 1;
C47 <= 1;
C48 <= 1;
C49 <= 1;
C50 <= 1;
C51 <= 1;
C52 <= 1;
C53 <= 1;
C54 <= 1;
C55 <= 1;
C56 <= 1;
C57 <= 1;
C58 <= 1;
C59 <= 1;
C60 <= 1;
C61 <= 1;
C62 <= 1;
C63 <= 1;
C64 <= 1;
C65 <= 1;
C66 <= 1;
C67 <= 1;
C68 <= 1;
C69 <= 1;
C70 <= 1;
C71 <= 1;
C72 <= 1;
C73 <= 1;
C74 <= 1;
C75 <= 1;
C76 <= 1;
C77 <= 1;
C78 <= 1;
C79 <= 1;
C80 <= 1;
C81 <= 1;
C82 <= 1;
C83 <= 1;
C84 <= 1;
C85 <= 1;
C86 <= 1;
C87 <= 1;
C88 <= 1;
C89 <= 1;
C90 <= 1;
C91 <= 1;
C92 <= 1;
C93 <= 1;
C94 <= 1;
C95 <= 1;
C96 <= 1;
C97 <= 1;
C98 <= 1;
C99 <= 1;
C100 <= 1;
C101 <= 1;
C102 <= 1;
C103 <= 1;
C104 <= 1;
C105 <= 1;
C106 <= 1;
C107 <= 1;
C108 <= 1;
C109 <= 1;
C110 <= 1;
C111 <= 1;
C112 <= 1;
C113 <= 1;
C114 <= 1;
C115 <= 1;
C116 <= 1;
C117 <= 1;
C118 <= 1;
C119 <= 1;
C120 <= 1;
C121 <= 1;
C122 <= 1;
C123 <= 1;
C124 <= 1;
C125 <= 1;
C126 <= 1;
C127 <= 1;
C128 <= 1;
C129 <= 1;
C130 <= 1;
C131 <= 1;
C132 <= 1;
C133 <= 1;
C134 <= 1;
C135 <= 1;
C136 <= 1;
C137 <= 1;
C138 <= 1;
C139 <= 1;
C140 <= 1;
C141 <= 1;
C142 <= 1;
C143 <= 1;
C144 <= 1;
C145 <= 1;
C146 <= 1;
C147 <= 1;
C148 <= 1;
C149 <= 1;
C150 <= 1;
C151 <= 1;
C152 <= 1;
C153 <= 1;
C154 <= 1;
C155 <= 1;
C156 <= 1;

/* Integer definitions */
int C1,C2,C3,C4,C5,C6,C7,C8,C9,C10,C11,C12,C13,C14,C15,C16,C17,C18,C19,C20,C21,C22,C23,C24,C25,C26,C27,C28,C29,C30,C31,C32,C33,C34,C35,C36,C37,C38,C39,C40,C41,C42,C43,C44,C45,C46,C47,C48,C49,C50,C51,C52,C53,C54,C55,C56,C57,C58,C59,C60,C61,C62,C63,C64,C65,C66,C67,C68,C69,C70,C71,C72,C73,C74,C75,C76,C77,C78,C79,C80,C81,C82,C83,C84,C85,C86,C87,C88,C89,C90,C91,C92,C93,C94,C95,C96,C97,C98,C99,C100,C101,C102,C103,C104,C105,C106,C107,C108,C109,C110,C111,C112,C113,C114,C115,C116,C117,C118,C119,C120,C121,C122,C123,C124,C125,C126,C127,C128,C129,C130,C131,C132,C133,C134,C135,C136,C137,C138,C139,C140,C141,C142,C143,C144,C145,C146,C147,C148,C149,C150,C151,C152,C153,C154,C155,C156;
